s = array1d(1..225, [3, 6, 5, 4, 10, 0, 0, 14, 0, 0, 0, 0, 13, 0, 0, 0, 0, 14, 0, 0, 0, 7, 8, 4, 0, 1, 0, 0, 5, 0, 0, 0, 0, 0, 12, 13, 6, 0, 14, 11, 0, 3, 0, 0, 0, 0, 0, 12, 9, 0, 2, 13, 0, 7, 0, 0, 0, 0, 14, 0, 7, 12, 10, 0, 2, 0, 8, 9, 0, 0, 0, 0, 0, 0, 5, 0, 0, 13, 11, 0, 0, 0, 12, 0, 0, 0, 9, 4, 6, 14, 1, 13, 3, 5, 14, 0, 0, 0, 0, 6, 0, 0, 0, 0, 4, 13, 0, 0, 7, 0, 0, 0, 4, 0, 8, 2, 11, 3, 0, 0, 0, 2, 0, 0, 0, 0, 0, 5, 13, 0, 14, 0, 6, 0, 9, 0, 7, 0, 0, 0, 0, 0, 1, 0, 4, 12, 13, 0, 2, 0, 9, 0, 11, 0, 0, 0, 0, 0, 10, 0, 13, 8, 0, 1, 3, 0, 8, 0, 0, 0, 10, 11, 0, 0, 12, 6, 0, 14, 7, 0, 11, 0, 0, 6, 0, 9, 3, 0, 0, 1, 0, 0, 8, 0, 10, 2, 0, 0, 12, 7, 14, 0, 0, 1, 13, 0, 0, 0, 0, 0, 0, 3, 1, 0, 5, 0, 0, 0, 11, 0, 0, 10, 9, 12, 0]);
n = 15;
